\* planning_problem_of_kits *\
Minimize
Costo_Total: 12570.8 y_La_Victoria + 30050.5 y_Roldanillo + 431.2 y_Zarzal
Subject To
_C1: y_La_Victoria + y_Roldanillo + y_Zarzal = 1
Binaries
y_La_Victoria
y_Roldanillo
y_Zarzal
End
